PARAMETER_FILE = even/LKH_uncomplete_graph/x10/nei/par/random191.par
PROBLEM_FILE = even/LKH_uncomplete_graph/x10/nei/mat/random191.tsp
Successes/Runs = 0/10
Cost.min = 1049, Cost.avg = 1049.00, Cost.max = 1049
Gap.min = 0.0000%, Gap.avg = 0.0000%, Gap.max = 0.0000%
Trials.min = 1000, Trials.avg = 1000.0, Trials.max = 1000
Time.min = 0.79 sec., Time.avg = 1.15 sec., Time.max = 2.27 sec.
Time.total = 11.74 sec.
请按任意键继续. . . 
